c 
c G(n,p) graph
c graph gen seed     : 68103
c number of vertices : 80
c max number of edges: 3160
c edge probability   : 0.200000
c data structure     : sparse
c
c           Graph Stats
c number of vertices  : 80
c nonisolated vertices: 80
c number of edges     : 665
c edge density        : 0.210443
c max degree          : 25
c avg degree          : 16.62
c min degree          : 9
p col 80 665
e 1 78
e 1 76
e 1 64
e 1 62
e 1 59
e 1 53
e 1 49
e 1 47
e 1 44
e 1 38
e 1 36
e 1 24
e 1 21
e 1 12
e 1 5
e 1 2
e 2 76
e 2 69
e 2 66
e 2 63
e 2 60
e 2 58
e 2 53
e 2 46
e 2 45
e 2 42
e 2 36
e 2 35
e 2 34
e 2 31
e 2 30
e 2 28
e 2 24
e 2 23
e 2 20
e 2 16
e 2 13
e 2 10
e 2 8
e 3 79
e 3 69
e 3 67
e 3 64
e 3 58
e 3 49
e 3 46
e 3 44
e 3 40
e 3 39
e 3 31
e 3 24
e 3 21
e 3 20
e 3 18
e 3 17
e 3 10
e 3 5
e 3 4
e 4 78
e 4 69
e 4 67
e 4 58
e 4 50
e 4 49
e 4 45
e 4 37
e 4 30
e 4 28
e 4 25
e 4 22
e 4 21
e 4 16
e 4 11
e 4 9
e 4 5
e 5 77
e 5 74
e 5 73
e 5 70
e 5 67
e 5 65
e 5 63
e 5 58
e 5 57
e 5 52
e 5 51
e 5 45
e 5 39
e 5 37
e 5 33
e 5 31
e 5 27
e 5 17
e 5 14
e 5 10
e 5 6
e 6 79
e 6 76
e 6 72
e 6 68
e 6 64
e 6 50
e 6 35
e 6 33
e 6 31
e 6 23
e 6 22
e 6 21
e 6 14
e 6 11
e 6 10
e 6 7
e 7 80
e 7 76
e 7 72
e 7 71
e 7 61
e 7 55
e 7 52
e 7 50
e 7 49
e 7 42
e 7 36
e 7 33
e 7 32
e 7 20
e 7 14
e 7 13
e 8 79
e 8 77
e 8 62
e 8 56
e 8 52
e 8 50
e 8 46
e 8 39
e 8 26
e 8 25
e 8 17
e 8 15
e 8 9
e 9 79
e 9 78
e 9 75
e 9 68
e 9 67
e 9 62
e 9 50
e 9 38
e 9 35
e 9 24
e 9 22
e 9 19
e 10 80
e 10 79
e 10 77
e 10 74
e 10 70
e 10 60
e 10 55
e 10 54
e 10 53
e 10 51
e 10 44
e 10 43
e 10 34
e 10 33
e 10 31
e 10 21
e 10 15
e 11 79
e 11 72
e 11 69
e 11 68
e 11 66
e 11 63
e 11 59
e 11 58
e 11 50
e 11 49
e 11 41
e 11 34
e 11 28
e 11 18
e 11 15
e 12 77
e 12 74
e 12 71
e 12 64
e 12 55
e 12 44
e 12 25
e 12 22
e 12 13
e 13 77
e 13 75
e 13 63
e 13 61
e 13 58
e 13 56
e 13 51
e 13 45
e 13 44
e 13 37
e 13 30
e 13 28
e 13 24
e 13 23
e 13 20
e 13 17
e 13 14
e 14 77
e 14 71
e 14 63
e 14 56
e 14 55
e 14 51
e 14 42
e 14 39
e 14 36
e 14 24
e 14 15
e 15 80
e 15 76
e 15 71
e 15 69
e 15 43
e 15 38
e 15 32
e 16 79
e 16 77
e 16 75
e 16 69
e 16 66
e 16 63
e 16 62
e 16 61
e 16 60
e 16 58
e 16 50
e 16 41
e 16 37
e 16 35
e 16 33
e 16 23
e 16 20
e 17 76
e 17 66
e 17 65
e 17 59
e 17 56
e 17 55
e 17 47
e 17 40
e 17 39
e 17 38
e 17 24
e 17 18
e 18 79
e 18 78
e 18 75
e 18 71
e 18 68
e 18 65
e 18 60
e 18 52
e 18 49
e 18 48
e 18 43
e 18 42
e 18 32
e 18 31
e 18 30
e 18 21
e 19 75
e 19 73
e 19 72
e 19 68
e 19 64
e 19 59
e 19 56
e 19 55
e 19 50
e 19 48
e 19 40
e 19 36
e 19 33
e 19 32
e 19 31
e 19 29
e 19 28
e 19 23
e 20 76
e 20 75
e 20 74
e 20 72
e 20 68
e 20 56
e 20 51
e 20 49
e 20 48
e 20 44
e 20 42
e 20 41
e 20 27
e 20 23
e 20 22
e 21 79
e 21 77
e 21 68
e 21 64
e 21 60
e 21 51
e 21 46
e 21 45
e 21 41
e 21 23
e 22 80
e 22 77
e 22 70
e 22 67
e 22 59
e 22 58
e 22 55
e 22 45
e 22 44
e 22 39
e 22 38
e 22 36
e 22 30
e 22 26
e 23 79
e 23 73
e 23 71
e 23 67
e 23 66
e 23 64
e 23 58
e 23 54
e 23 50
e 23 47
e 23 45
e 23 38
e 23 36
e 23 31
e 23 29
e 23 27
e 24 78
e 24 76
e 24 74
e 24 72
e 24 71
e 24 62
e 24 58
e 24 54
e 24 53
e 24 50
e 24 48
e 24 27
e 24 25
e 25 79
e 25 59
e 25 48
e 25 47
e 25 45
e 25 43
e 25 31
e 25 29
e 26 79
e 26 68
e 26 59
e 26 50
e 26 49
e 26 35
e 26 27
e 27 74
e 27 71
e 27 69
e 27 68
e 27 59
e 27 54
e 27 52
e 27 50
e 27 35
e 27 34
e 27 30
e 28 75
e 28 68
e 28 67
e 28 64
e 28 59
e 28 58
e 28 51
e 28 47
e 28 46
e 28 45
e 28 38
e 29 75
e 29 70
e 29 59
e 29 50
e 29 48
e 29 47
e 29 40
e 29 31
e 29 30
e 30 79
e 30 77
e 30 63
e 30 60
e 30 58
e 30 55
e 30 50
e 30 48
e 30 43
e 30 39
e 30 34
e 30 32
e 31 80
e 31 67
e 31 65
e 31 64
e 31 62
e 31 61
e 31 55
e 31 44
e 31 41
e 32 76
e 32 55
e 32 53
e 32 47
e 32 46
e 32 44
e 32 41
e 32 39
e 32 36
e 33 79
e 33 69
e 33 59
e 33 55
e 33 51
e 33 41
e 33 39
e 33 38
e 34 73
e 34 57
e 34 54
e 34 46
e 34 37
e 35 80
e 35 75
e 35 73
e 35 68
e 35 65
e 35 61
e 35 59
e 35 53
e 35 52
e 35 45
e 35 43
e 35 37
e 35 36
e 36 78
e 36 72
e 36 71
e 36 68
e 36 66
e 36 64
e 36 63
e 36 59
e 36 47
e 36 43
e 36 41
e 36 40
e 37 80
e 37 77
e 37 74
e 37 72
e 37 67
e 37 64
e 37 58
e 37 56
e 37 50
e 37 48
e 37 47
e 37 45
e 37 41
e 37 38
e 38 67
e 38 59
e 38 57
e 38 50
e 38 44
e 38 43
e 39 75
e 39 65
e 39 53
e 39 52
e 39 43
e 39 41
e 40 79
e 40 78
e 40 77
e 40 70
e 40 65
e 40 57
e 41 78
e 41 67
e 41 62
e 41 58
e 41 52
e 42 78
e 42 71
e 42 57
e 42 50
e 42 47
e 43 75
e 43 70
e 43 68
e 43 59
e 43 52
e 43 51
e 43 44
e 44 80
e 44 79
e 44 78
e 44 74
e 44 69
e 44 66
e 44 64
e 44 59
e 44 57
e 44 46
e 45 80
e 45 78
e 45 67
e 45 51
e 45 47
e 46 77
e 46 74
e 46 60
e 46 57
e 46 50
e 46 49
e 46 47
e 47 76
e 47 73
e 47 72
e 47 70
e 47 69
e 47 68
e 47 55
e 48 80
e 48 77
e 48 73
e 48 68
e 48 67
e 48 64
e 48 63
e 48 62
e 48 61
e 48 58
e 48 56
e 49 76
e 49 75
e 49 74
e 49 69
e 49 65
e 49 64
e 49 51
e 49 50
e 50 73
e 50 64
e 50 62
e 50 60
e 50 52
e 50 51
e 51 80
e 51 79
e 51 77
e 51 70
e 51 68
e 51 63
e 51 62
e 51 61
e 51 57
e 51 52
e 52 80
e 52 78
e 52 73
e 52 72
e 52 57
e 52 53
e 53 80
e 53 70
e 53 67
e 53 65
e 53 61
e 54 77
e 54 76
e 54 74
e 54 66
e 54 65
e 54 60
e 54 58
e 55 77
e 55 73
e 55 68
e 56 71
e 56 64
e 56 62
e 56 60
e 56 59
e 57 80
e 57 66
e 58 77
e 58 72
e 58 65
e 58 60
e 59 70
e 59 68
e 59 61
e 60 79
e 60 70
e 60 68
e 60 63
e 60 62
e 61 76
e 61 72
e 61 66
e 62 80
e 62 79
e 62 78
e 62 75
e 62 70
e 62 66
e 62 64
e 63 67
e 64 79
e 64 70
e 64 67
e 64 65
e 65 78
e 65 76
e 65 74
e 65 72
e 65 71
e 66 77
e 66 75
e 66 74
e 66 71
e 66 68
e 67 74
e 67 70
e 67 68
e 69 76
e 69 75
e 70 72
e 72 79
e 73 80
e 74 78
e 75 78
e 76 77
e 77 80
e 79 80
